1 31 2
-244 -720 -811 -466 -944 -64 -881 -845 -368 -213 -833 -688 -861 -654 -747 -947 -791 -944 -786 -312 -307 -992 -596 -988 -129 -144 -164 -671 -306 -65 0 
-775 -295 -203 -577 -35 -883 -72 -75 -728 -727 -73 -294 -229 -372 -185 -141 -154 -50 -127 -704 -686 -99 -481 -80 -887 -882 -934 -293 -694 -930 0 
839 920 860 866 1096 1092 808 809 1012 1105 1045 792 1106 928 752 996 755 1067 1104 1203 1147 1059 1221 1124 907 828 1276 1132 1048 962 1 
14929 
